c FILE /home/rafael/Documents/HappySet/MIHS/inputs/happygen/output/graph_random_k7_p0.1_v100_20241127_083650.txt
c SOURCE This is a random graph formed for the happy graph colouring problem.
c DESCRIPTION It was generated using the problem generator of Rhyd Lewis
c
c GRAPH STATS
c Seed                             = -1545684323
c Number of Nodes                  = 100
c Edge probability defined by user = 0.5
c Number of colours k              = 7
c Number of pre-assignments        = 10
c Actual density                   = 0.495152
c 
c The degrees of nodes 1 to 100, respectively, are as follows 
c [62, 62, 62, 61, 56, 56, 56, 56, 56, 56, 56, 55, 55, 55, 55, 54, 54, 54, 53, 53, 53, 53, 53, 52, 52, 52, 
c  52, 51, 51, 51, 51, 51, 51, 51, 51, 51, 51, 51, 51, 51, 50, 50, 50, 50, 50, 50, 50, 50, 49, 49, 49, 
c  49, 49, 49, 49, 49, 49, 48, 48, 48, 48, 48, 48, 48, 48, 47, 47, 47, 47, 47, 47, 46, 46, 46, 46, 45, 
c  45, 45, 45, 45, 45, 45, 44, 44, 43, 43, 42, 41, 41, 41, 41, 41, 41, 41, 40, 40, 40, 39, 39, 38] 
c  
p edge 100 2451 7
e 1 3
e 1 4
e 1 5
e 1 7
e 1 8
e 1 9
e 1 10
e 1 11
e 1 13
e 1 16
e 1 17
e 1 18
e 1 19
e 1 21
e 1 22
e 1 24
e 1 25
e 1 26
e 1 32
e 1 34
e 1 35
e 1 36
e 1 37
e 1 39
e 1 41
e 1 42
e 1 46
e 1 47
e 1 51
e 1 53
e 1 55
e 1 57
e 1 58
e 1 59
e 1 60
e 1 61
e 1 62
e 1 63
e 1 65
e 1 66
e 1 67
e 1 69
e 1 70
e 1 71
e 1 73
e 1 74
e 1 75
e 1 77
e 1 78
e 1 80
e 1 82
e 1 83
e 1 84
e 1 85
e 1 86
e 1 88
e 1 89
e 1 92
e 1 93
e 1 94
e 1 97
e 1 100
e 2 3
e 2 4
e 2 6
e 2 7
e 2 8
e 2 11
e 2 13
e 2 14
e 2 15
e 2 18
e 2 19
e 2 21
e 2 22
e 2 23
e 2 24
e 2 26
e 2 27
e 2 28
e 2 31
e 2 32
e 2 33
e 2 34
e 2 35
e 2 36
e 2 37
e 2 38
e 2 40
e 2 43
e 2 44
e 2 45
e 2 47
e 2 49
e 2 51
e 2 52
e 2 53
e 2 54
e 2 56
e 2 58
e 2 60
e 2 61
e 2 64
e 2 65
e 2 66
e 2 68
e 2 69
e 2 70
e 2 72
e 2 74
e 2 78
e 2 80
e 2 82
e 2 83
e 2 84
e 2 85
e 2 87
e 2 92
e 2 95
e 2 96
e 2 97
e 2 98
e 2 99
e 2 100
e 3 4
e 3 6
e 3 7
e 3 8
e 3 9
e 3 11
e 3 12
e 3 13
e 3 15
e 3 16
e 3 17
e 3 18
e 3 20
e 3 22
e 3 23
e 3 25
e 3 26
e 3 28
e 3 32
e 3 33
e 3 36
e 3 37
e 3 38
e 3 41
e 3 42
e 3 43
e 3 45
e 3 46
e 3 48
e 3 49
e 3 50
e 3 53
e 3 54
e 3 55
e 3 57
e 3 58
e 3 59
e 3 60
e 3 61
e 3 62
e 3 64
e 3 65
e 3 66
e 3 68
e 3 69
e 3 70
e 3 71
e 3 72
e 3 73
e 3 74
e 3 77
e 3 81
e 3 82
e 3 83
e 3 85
e 3 88
e 3 89
e 3 91
e 3 92
e 3 95
e 4 5
e 4 7
e 4 8
e 4 9
e 4 10
e 4 11
e 4 12
e 4 16
e 4 17
e 4 19
e 4 21
e 4 22
e 4 24
e 4 25
e 4 29
e 4 31
e 4 34
e 4 37
e 4 38
e 4 39
e 4 40
e 4 41
e 4 43
e 4 46
e 4 48
e 4 50
e 4 52
e 4 53
e 4 54
e 4 55
e 4 56
e 4 57
e 4 58
e 4 59
e 4 61
e 4 62
e 4 64
e 4 66
e 4 67
e 4 69
e 4 70
e 4 71
e 4 72
e 4 73
e 4 75
e 4 76
e 4 79
e 4 81
e 4 86
e 4 88
e 4 91
e 4 92
e 4 93
e 4 95
e 4 97
e 4 98
e 4 99
e 4 100
e 5 6
e 5 9
e 5 11
e 5 12
e 5 13
e 5 14
e 5 15
e 5 16
e 5 17
e 5 19
e 5 21
e 5 23
e 5 24
e 5 27
e 5 28
e 5 31
e 5 32
e 5 33
e 5 34
e 5 35
e 5 37
e 5 38
e 5 40
e 5 41
e 5 43
e 5 45
e 5 47
e 5 48
e 5 50
e 5 52
e 5 55
e 5 57
e 5 59
e 5 62
e 5 63
e 5 64
e 5 65
e 5 66
e 5 70
e 5 71
e 5 72
e 5 73
e 5 74
e 5 77
e 5 78
e 5 80
e 5 81
e 5 82
e 5 85
e 5 87
e 5 88
e 5 94
e 5 96
e 5 97
e 6 7
e 6 8
e 6 9
e 6 10
e 6 11
e 6 12
e 6 13
e 6 14
e 6 16
e 6 17
e 6 18
e 6 19
e 6 21
e 6 23
e 6 24
e 6 25
e 6 27
e 6 28
e 6 31
e 6 35
e 6 38
e 6 39
e 6 40
e 6 42
e 6 43
e 6 45
e 6 47
e 6 48
e 6 49
e 6 54
e 6 55
e 6 56
e 6 57
e 6 60
e 6 63
e 6 66
e 6 67
e 6 68
e 6 70
e 6 72
e 6 73
e 6 75
e 6 76
e 6 78
e 6 79
e 6 80
e 6 81
e 6 84
e 6 91
e 6 94
e 6 95
e 6 97
e 6 99
e 7 10
e 7 13
e 7 14
e 7 16
e 7 18
e 7 20
e 7 21
e 7 23
e 7 25
e 7 27
e 7 28
e 7 29
e 7 30
e 7 31
e 7 32
e 7 35
e 7 36
e 7 38
e 7 39
e 7 40
e 7 41
e 7 46
e 7 47
e 7 49
e 7 50
e 7 51
e 7 53
e 7 54
e 7 55
e 7 58
e 7 59
e 7 60
e 7 61
e 7 64
e 7 65
e 7 67
e 7 68
e 7 69
e 7 70
e 7 72
e 7 76
e 7 77
e 7 79
e 7 80
e 7 86
e 7 88
e 7 90
e 7 91
e 7 93
e 7 98
e 7 99
e 8 11
e 8 12
e 8 14
e 8 17
e 8 18
e 8 20
e 8 21
e 8 24
e 8 26
e 8 28
e 8 29
e 8 32
e 8 34
e 8 35
e 8 36
e 8 38
e 8 41
e 8 42
e 8 45
e 8 46
e 8 49
e 8 50
e 8 52
e 8 53
e 8 54
e 8 55
e 8 58
e 8 59
e 8 60
e 8 61
e 8 62
e 8 63
e 8 64
e 8 69
e 8 70
e 8 72
e 8 73
e 8 75
e 8 78
e 8 79
e 8 80
e 8 81
e 8 83
e 8 86
e 8 87
e 8 91
e 8 92
e 8 93
e 8 95
e 8 96
e 8 98
e 9 10
e 9 13
e 9 14
e 9 16
e 9 17
e 9 19
e 9 20
e 9 21
e 9 23
e 9 25
e 9 27
e 9 29
e 9 30
e 9 31
e 9 32
e 9 35
e 9 36
e 9 37
e 9 43
e 9 44
e 9 45
e 9 47
e 9 49
e 9 51
e 9 53
e 9 55
e 9 56
e 9 59
e 9 60
e 9 61
e 9 62
e 9 64
e 9 66
e 9 68
e 9 73
e 9 75
e 9 77
e 9 78
e 9 80
e 9 81
e 9 82
e 9 83
e 9 87
e 9 88
e 9 90
e 9 91
e 9 94
e 9 97
e 9 98
e 9 99
e 9 100
e 10 12
e 10 14
e 10 15
e 10 16
e 10 17
e 10 18
e 10 19
e 10 20
e 10 22
e 10 23
e 10 25
e 10 26
e 10 27
e 10 29
e 10 30
e 10 33
e 10 34
e 10 37
e 10 38
e 10 41
e 10 43
e 10 45
e 10 46
e 10 47
e 10 48
e 10 49
e 10 50
e 10 54
e 10 55
e 10 56
e 10 58
e 10 62
e 10 63
e 10 65
e 10 67
e 10 69
e 10 70
e 10 73
e 10 74
e 10 78
e 10 81
e 10 82
e 10 83
e 10 85
e 10 88
e 10 89
e 10 91
e 10 97
e 10 98
e 10 99
e 10 100
e 11 12
e 11 14
e 11 15
e 11 18
e 11 19
e 11 20
e 11 21
e 11 23
e 11 25
e 11 26
e 11 28
e 11 29
e 11 30
e 11 32
e 11 34
e 11 35
e 11 36
e 11 37
e 11 38
e 11 40
e 11 41
e 11 43
e 11 48
e 11 49
e 11 51
e 11 52
e 11 53
e 11 54
e 11 55
e 11 56
e 11 58
e 11 59
e 11 62
e 11 66
e 11 69
e 11 74
e 11 76
e 11 77
e 11 78
e 11 79
e 11 82
e 11 83
e 11 85
e 11 86
e 11 94
e 11 95
e 11 96
e 11 99
e 11 100
e 12 13
e 12 15
e 12 19
e 12 21
e 12 24
e 12 25
e 12 28
e 12 31
e 12 33
e 12 34
e 12 39
e 12 40
e 12 41
e 12 42
e 12 43
e 12 45
e 12 47
e 12 49
e 12 51
e 12 52
e 12 54
e 12 55
e 12 56
e 12 59
e 12 60
e 12 61
e 12 65
e 12 66
e 12 68
e 12 70
e 12 71
e 12 73
e 12 75
e 12 76
e 12 77
e 12 79
e 12 80
e 12 82
e 12 86
e 12 87
e 12 88
e 12 91
e 12 93
e 12 94
e 12 96
e 12 97
e 12 99
e 12 100
e 13 14
e 13 17
e 13 18
e 13 19
e 13 21
e 13 22
e 13 26
e 13 27
e 13 28
e 13 30
e 13 31
e 13 32
e 13 34
e 13 35
e 13 37
e 13 39
e 13 42
e 13 44
e 13 45
e 13 46
e 13 51
e 13 53
e 13 55
e 13 56
e 13 59
e 13 60
e 13 64
e 13 65
e 13 67
e 13 68
e 13 69
e 13 70
e 13 71
e 13 72
e 13 75
e 13 77
e 13 78
e 13 80
e 13 81
e 13 87
e 13 88
e 13 90
e 13 93
e 13 94
e 13 95
e 13 96
e 13 99
e 14 15
e 14 17
e 14 19
e 14 20
e 14 21
e 14 23
e 14 24
e 14 25
e 14 26
e 14 27
e 14 32
e 14 33
e 14 34
e 14 35
e 14 36
e 14 38
e 14 40
e 14 41
e 14 42
e 14 46
e 14 47
e 14 48
e 14 50
e 14 55
e 14 56
e 14 57
e 14 58
e 14 60
e 14 61
e 14 67
e 14 68
e 14 70
e 14 71
e 14 72
e 14 73
e 14 74
e 14 77
e 14 78
e 14 81
e 14 82
e 14 83
e 14 86
e 14 89
e 14 94
e 14 96
e 14 99
e 15 17
e 15 18
e 15 24
e 15 25
e 15 26
e 15 29
e 15 30
e 15 31
e 15 33
e 15 34
e 15 35
e 15 39
e 15 40
e 15 46
e 15 48
e 15 49
e 15 50
e 15 51
e 15 53
e 15 54
e 15 55
e 15 56
e 15 57
e 15 58
e 15 60
e 15 62
e 15 63
e 15 66
e 15 70
e 15 71
e 15 73
e 15 74
e 15 75
e 15 76
e 15 78
e 15 80
e 15 81
e 15 82
e 15 83
e 15 86
e 15 87
e 15 88
e 15 89
e 15 92
e 15 96
e 15 97
e 15 99
e 15 100
e 16 17
e 16 20
e 16 21
e 16 23
e 16 24
e 16 25
e 16 26
e 16 27
e 16 30
e 16 31
e 16 35
e 16 38
e 16 39
e 16 42
e 16 43
e 16 44
e 16 45
e 16 47
e 16 51
e 16 52
e 16 53
e 16 57
e 16 58
e 16 59
e 16 60
e 16 61
e 16 62
e 16 63
e 16 64
e 16 66
e 16 69
e 16 71
e 16 72
e 16 73
e 16 76
e 16 78
e 16 79
e 16 80
e 16 84
e 16 87
e 16 89
e 16 90
e 16 92
e 16 95
e 16 97
e 16 100
e 17 19
e 17 20
e 17 22
e 17 24
e 17 26
e 17 28
e 17 29
e 17 30
e 17 33
e 17 36
e 17 37
e 17 39
e 17 40
e 17 41
e 17 42
e 17 44
e 17 46
e 17 47
e 17 48
e 17 49
e 17 50
e 17 54
e 17 57
e 17 58
e 17 60
e 17 65
e 17 67
e 17 68
e 17 72
e 17 77
e 17 78
e 17 81
e 17 82
e 17 83
e 17 85
e 17 86
e 17 90
e 17 94
e 17 96
e 17 97
e 17 98
e 17 100
e 18 19
e 18 20
e 18 21
e 18 22
e 18 26
e 18 28
e 18 30
e 18 31
e 18 32
e 18 34
e 18 38
e 18 39
e 18 42
e 18 44
e 18 45
e 18 46
e 18 47
e 18 51
e 18 52
e 18 53
e 18 56
e 18 59
e 18 60
e 18 61
e 18 62
e 18 64
e 18 65
e 18 67
e 18 68
e 18 69
e 18 70
e 18 71
e 18 72
e 18 74
e 18 76
e 18 82
e 18 84
e 18 85
e 18 89
e 18 90
e 18 92
e 18 93
e 18 95
e 18 97
e 19 21
e 19 23
e 19 25
e 19 26
e 19 29
e 19 31
e 19 33
e 19 34
e 19 35
e 19 41
e 19 43
e 19 44
e 19 45
e 19 53
e 19 57
e 19 59
e 19 61
e 19 62
e 19 64
e 19 67
e 19 68
e 19 69
e 19 74
e 19 75
e 19 77
e 19 78
e 19 81
e 19 82
e 19 84
e 19 87
e 19 88
e 19 89
e 19 91
e 19 92
e 19 93
e 19 94
e 19 95
e 19 96
e 19 98
e 19 100
e 20 22
e 20 27
e 20 29
e 20 30
e 20 31
e 20 32
e 20 33
e 20 34
e 20 35
e 20 37
e 20 38
e 20 39
e 20 42
e 20 43
e 20 44
e 20 45
e 20 47
e 20 49
e 20 51
e 20 53
e 20 55
e 20 57
e 20 59
e 20 60
e 20 61
e 20 67
e 20 68
e 20 69
e 20 70
e 20 75
e 20 76
e 20 78
e 20 79
e 20 80
e 20 81
e 20 83
e 20 84
e 20 85
e 20 86
e 20 87
e 20 88
e 20 93
e 20 98
e 21 22
e 21 28
e 21 31
e 21 32
e 21 33
e 21 34
e 21 36
e 21 37
e 21 41
e 21 42
e 21 43
e 21 45
e 21 47
e 21 48
e 21 50
e 21 51
e 21 53
e 21 54
e 21 55
e 21 56
e 21 59
e 21 63
e 21 66
e 21 68
e 21 69
e 21 70
e 21 73
e 21 77
e 21 79
e 21 83
e 21 84
e 21 85
e 21 86
e 21 89
e 21 94
e 21 95
e 21 98
e 21 100
e 22 23
e 22 24
e 22 27
e 22 29
e 22 31
e 22 36
e 22 38
e 22 39
e 22 40
e 22 43
e 22 46
e 22 47
e 22 48
e 22 49
e 22 50
e 22 51
e 22 52
e 22 53
e 22 54
e 22 58
e 22 61
e 22 62
e 22 63
e 22 64
e 22 67
e 22 69
e 22 72
e 22 73
e 22 74
e 22 75
e 22 76
e 22 78
e 22 80
e 22 84
e 22 85
e 22 88
e 22 91
e 22 93
e 22 94
e 22 96
e 22 97
e 22 98
e 22 100
e 23 25
e 23 26
e 23 27
e 23 28
e 23 29
e 23 30
e 23 31
e 23 32
e 23 37
e 23 38
e 23 39
e 23 41
e 23 42
e 23 43
e 23 44
e 23 52
e 23 53
e 23 54
e 23 56
e 23 57
e 23 58
e 23 59
e 23 60
e 23 61
e 23 62
e 23 65
e 23 69
e 23 71
e 23 72
e 23 73
e 23 75
e 23 81
e 23 83
e 23 85
e 23 89
e 23 90
e 23 91
e 23 93
e 23 94
e 23 95
e 23 100
e 24 26
e 24 27
e 24 28
e 24 30
e 24 31
e 24 33
e 24 36
e 24 39
e 24 40
e 24 41
e 24 42
e 24 47
e 24 48
e 24 49
e 24 51
e 24 52
e 24 53
e 24 54
e 24 55
e 24 56
e 24 59
e 24 60
e 24 62
e 24 66
e 24 67
e 24 69
e 24 71
e 24 75
e 24 79
e 24 80
e 24 81
e 24 84
e 24 87
e 24 88
e 24 90
e 24 92
e 24 95
e 24 96
e 24 97
e 24 98
e 25 27
e 25 29
e 25 30
e 25 33
e 25 34
e 25 36
e 25 37
e 25 40
e 25 42
e 25 44
e 25 51
e 25 52
e 25 55
e 25 56
e 25 62
e 25 63
e 25 65
e 25 70
e 25 71
e 25 72
e 25 73
e 25 74
e 25 75
e 25 76
e 25 77
e 25 79
e 25 81
e 25 84
e 25 87
e 25 88
e 25 89
e 25 90
e 25 91
e 25 92
e 25 94
e 25 98
e 25 99
e 25 100
e 26 27
e 26 28
e 26 30
e 26 31
e 26 32
e 26 33
e 26 34
e 26 37
e 26 38
e 26 41
e 26 43
e 26 44
e 26 45
e 26 46
e 26 52
e 26 53
e 26 61
e 26 62
e 26 63
e 26 64
e 26 67
e 26 68
e 26 69
e 26 71
e 26 75
e 26 76
e 26 77
e 26 86
e 26 90
e 26 91
e 26 93
e 26 94
e 26 95
e 26 97
e 26 98
e 26 99
e 26 100
e 27 28
e 27 29
e 27 30
e 27 31
e 27 33
e 27 34
e 27 35
e 27 36
e 27 37
e 27 38
e 27 39
e 27 40
e 27 41
e 27 44
e 27 45
e 27 49
e 27 50
e 27 52
e 27 53
e 27 55
e 27 56
e 27 57
e 27 59
e 27 60
e 27 61
e 27 68
e 27 71
e 27 73
e 27 74
e 27 78
e 27 79
e 27 80
e 27 81
e 27 83
e 27 84
e 27 90
e 27 93
e 28 29
e 28 30
e 28 31
e 28 32
e 28 34
e 28 37
e 28 40
e 28 42
e 28 45
e 28 48
e 28 49
e 28 50
e 28 52
e 28 53
e 28 54
e 28 55
e 28 57
e 28 61
e 28 62
e 28 63
e 28 65
e 28 66
e 28 67
e 28 68
e 28 71
e 28 72
e 28 75
e 28 76
e 28 81
e 28 85
e 28 86
e 28 87
e 28 95
e 28 96
e 28 99
e 29 32
e 29 37
e 29 38
e 29 39
e 29 41
e 29 44
e 29 46
e 29 47
e 29 48
e 29 51
e 29 54
e 29 55
e 29 56
e 29 57
e 29 60
e 29 62
e 29 63
e 29 66
e 29 67
e 29 68
e 29 69
e 29 70
e 29 72
e 29 73
e 29 74
e 29 78
e 29 82
e 29 83
e 29 86
e 29 88
e 29 89
e 29 90
e 29 91
e 29 96
e 29 97
e 29 98
e 30 31
e 30 32
e 30 33
e 30 35
e 30 36
e 30 37
e 30 38
e 30 40
e 30 42
e 30 43
e 30 45
e 30 48
e 30 53
e 30 54
e 30 55
e 30 56
e 30 58
e 30 61
e 30 62
e 30 63
e 30 64
e 30 70
e 30 71
e 30 72
e 30 73
e 30 74
e 30 76
e 30 81
e 30 82
e 30 83
e 30 89
e 30 90
e 30 94
e 30 97
e 30 98
e 31 33
e 31 35
e 31 38
e 31 43
e 31 47
e 31 50
e 31 52
e 31 54
e 31 55
e 31 56
e 31 59
e 31 60
e 31 61
e 31 62
e 31 63
e 31 65
e 31 67
e 31 69
e 31 71
e 31 74
e 31 76
e 31 77
e 31 79
e 31 80
e 31 81
e 31 82
e 31 92
e 31 94
e 31 97
e 31 99
e 32 34
e 32 37
e 32 42
e 32 43
e 32 44
e 32 45
e 32 47
e 32 48
e 32 49
e 32 51
e 32 52
e 32 53
e 32 55
e 32 57
e 32 59
e 32 60
e 32 61
e 32 63
e 32 64
e 32 65
e 32 66
e 32 68
e 32 79
e 32 80
e 32 81
e 32 82
e 32 83
e 32 85
e 32 90
e 32 93
e 32 95
e 32 96
e 32 97
e 33 37
e 33 38
e 33 39
e 33 41
e 33 44
e 33 46
e 33 47
e 33 48
e 33 50
e 33 51
e 33 53
e 33 55
e 33 57
e 33 59
e 33 60
e 33 61
e 33 62
e 33 64
e 33 65
e 33 73
e 33 74
e 33 75
e 33 76
e 33 77
e 33 78
e 33 79
e 33 80
e 33 81
e 33 82
e 33 88
e 33 89
e 33 93
e 33 96
e 33 99
e 34 36
e 34 37
e 34 39
e 34 40
e 34 41
e 34 42
e 34 43
e 34 45
e 34 49
e 34 51
e 34 52
e 34 53
e 34 59
e 34 60
e 34 62
e 34 65
e 34 66
e 34 67
e 34 68
e 34 69
e 34 71
e 34 73
e 34 76
e 34 77
e 34 78
e 34 82
e 34 84
e 34 89
e 34 90
e 34 91
e 34 98
e 35 36
e 35 37
e 35 38
e 35 39
e 35 40
e 35 42
e 35 44
e 35 45
e 35 46
e 35 50
e 35 51
e 35 52
e 35 53
e 35 54
e 35 55
e 35 63
e 35 64
e 35 66
e 35 67
e 35 68
e 35 71
e 35 72
e 35 74
e 35 75
e 35 76
e 35 82
e 35 83
e 35 84
e 35 87
e 35 88
e 35 89
e 35 93
e 35 97
e 35 100
e 36 37
e 36 39
e 36 40
e 36 41
e 36 42
e 36 43
e 36 44
e 36 45
e 36 47
e 36 48
e 36 50
e 36 53
e 36 54
e 36 55
e 36 57
e 36 58
e 36 63
e 36 66
e 36 70
e 36 71
e 36 74
e 36 75
e 36 79
e 36 80
e 36 82
e 36 84
e 36 85
e 36 86
e 36 87
e 36 88
e 36 91
e 36 94
e 36 95
e 36 98
e 37 38
e 37 41
e 37 43
e 37 45
e 37 47
e 37 48
e 37 50
e 37 51
e 37 52
e 37 55
e 37 57
e 37 59
e 37 63
e 37 70
e 37 71
e 37 72
e 37 73
e 37 75
e 37 76
e 37 78
e 37 80
e 37 87
e 37 93
e 37 94
e 37 96
e 37 97
e 37 100
e 38 39
e 38 40
e 38 43
e 38 44
e 38 45
e 38 51
e 38 52
e 38 53
e 38 55
e 38 57
e 38 59
e 38 62
e 38 64
e 38 65
e 38 66
e 38 70
e 38 72
e 38 80
e 38 82
e 38 83
e 38 84
e 38 86
e 38 88
e 38 91
e 38 93
e 38 95
e 38 98
e 38 99
e 39 40
e 39 41
e 39 42
e 39 44
e 39 46
e 39 49
e 39 51
e 39 52
e 39 54
e 39 57
e 39 58
e 39 60
e 39 65
e 39 66
e 39 67
e 39 68
e 39 70
e 39 74
e 39 76
e 39 77
e 39 82
e 39 83
e 39 88
e 39 89
e 39 90
e 39 91
e 39 94
e 39 95
e 39 99
e 39 100
e 40 42
e 40 43
e 40 44
e 40 48
e 40 50
e 40 55
e 40 57
e 40 59
e 40 62
e 40 63
e 40 64
e 40 69
e 40 70
e 40 71
e 40 73
e 40 75
e 40 77
e 40 79
e 40 81
e 40 82
e 40 84
e 40 88
e 40 89
e 40 90
e 40 91
e 40 92
e 40 93
e 40 94
e 40 95
e 40 97
e 41 42
e 41 43
e 41 46
e 41 47
e 41 50
e 41 51
e 41 53
e 41 57
e 41 59
e 41 60
e 41 62
e 41 64
e 41 67
e 41 69
e 41 70
e 41 71
e 41 76
e 41 80
e 41 82
e 41 84
e 41 85
e 41 86
e 41 89
e 41 93
e 41 94
e 41 99
e 41 100
e 42 44
e 42 45
e 42 46
e 42 47
e 42 49
e 42 50
e 42 54
e 42 59
e 42 62
e 42 63
e 42 64
e 42 65
e 42 67
e 42 68
e 42 71
e 42 74
e 42 76
e 42 77
e 42 78
e 42 79
e 42 82
e 42 85
e 42 87
e 42 89
e 42 90
e 42 92
e 43 47
e 43 48
e 43 49
e 43 50
e 43 52
e 43 56
e 43 63
e 43 65
e 43 68
e 43 69
e 43 70
e 43 71
e 43 73
e 43 75
e 43 78
e 43 79
e 43 80
e 43 81
e 43 82
e 43 84
e 43 87
e 43 88
e 43 89
e 43 90
e 43 94
e 44 45
e 44 46
e 44 48
e 44 49
e 44 51
e 44 52
e 44 54
e 44 57
e 44 58
e 44 61
e 44 62
e 44 63
e 44 64
e 44 67
e 44 69
e 44 71
e 44 75
e 44 78
e 44 79
e 44 81
e 44 82
e 44 86
e 44 90
e 44 91
e 44 93
e 44 94
e 44 97
e 44 98
e 44 99
e 45 46
e 45 49
e 45 51
e 45 52
e 45 54
e 45 56
e 45 61
e 45 65
e 45 66
e 45 69
e 45 71
e 45 72
e 45 74
e 45 77
e 45 78
e 45 80
e 45 83
e 45 84
e 45 86
e 45 90
e 45 92
e 45 95
e 45 96
e 45 97
e 46 47
e 46 48
e 46 53
e 46 54
e 46 56
e 46 57
e 46 60
e 46 61
e 46 62
e 46 63
e 46 65
e 46 66
e 46 68
e 46 71
e 46 72
e 46 73
e 46 74
e 46 75
e 46 76
e 46 82
e 46 83
e 46 84
e 46 86
e 46 87
e 46 89
e 46 90
e 46 91
e 46 93
e 46 96
e 47 50
e 47 51
e 47 55
e 47 58
e 47 59
e 47 61
e 47 62
e 47 63
e 47 65
e 47 66
e 47 69
e 47 70
e 47 72
e 47 75
e 47 77
e 47 78
e 47 79
e 47 82
e 47 83
e 47 84
e 47 87
e 47 92
e 47 96
e 47 98
e 48 49
e 48 50
e 48 52
e 48 55
e 48 56
e 48 57
e 48 58
e 48 59
e 48 60
e 48 61
e 48 65
e 48 66
e 48 68
e 48 70
e 48 71
e 48 74
e 48 75
e 48 76
e 48 80
e 48 84
e 48 85
e 48 86
e 48 87
e 48 92
e 48 95
e 48 96
e 48 97
e 49 53
e 49 54
e 49 55
e 49 56
e 49 59
e 49 61
e 49 64
e 49 65
e 49 66
e 49 67
e 49 68
e 49 70
e 49 73
e 49 75
e 49 76
e 49 78
e 49 82
e 49 83
e 49 86
e 49 87
e 49 88
e 49 90
e 49 92
e 49 96
e 49 98
e 50 51
e 50 52
e 50 53
e 50 56
e 50 57
e 50 58
e 50 60
e 50 61
e 50 62
e 50 68
e 50 71
e 50 73
e 50 74
e 50 75
e 50 79
e 50 80
e 50 81
e 50 83
e 50 85
e 50 90
e 50 92
e 50 93
e 50 94
e 50 98
e 50 100
e 51 52
e 51 54
e 51 56
e 51 57
e 51 58
e 51 61
e 51 63
e 51 65
e 51 66
e 51 75
e 51 78
e 51 81
e 51 85
e 51 87
e 51 88
e 51 89
e 51 92
e 51 93
e 51 94
e 51 98
e 51 99
e 52 54
e 52 57
e 52 58
e 52 59
e 52 60
e 52 61
e 52 65
e 52 66
e 52 67
e 52 68
e 52 72
e 52 76
e 52 78
e 52 79
e 52 83
e 52 84
e 52 89
e 52 91
e 52 95
e 52 98
e 52 99
e 53 54
e 53 60
e 53 62
e 53 63
e 53 64
e 53 72
e 53 73
e 53 75
e 53 76
e 53 79
e 53 80
e 53 85
e 53 87
e 53 88
e 53 89
e 53 95
e 53 97
e 54 56
e 54 58
e 54 59
e 54 62
e 54 67
e 54 71
e 54 74
e 54 75
e 54 77
e 54 81
e 54 83
e 54 85
e 54 86
e 54 87
e 54 89
e 54 92
e 54 93
e 54 94
e 54 96
e 55 56
e 55 58
e 55 62
e 55 66
e 55 68
e 55 76
e 55 77
e 55 81
e 55 83
e 55 84
e 55 85
e 55 90
e 55 92
e 55 93
e 55 94
e 55 100
e 56 57
e 56 58
e 56 59
e 56 60
e 56 61
e 56 62
e 56 65
e 56 70
e 56 71
e 56 72
e 56 77
e 56 80
e 56 84
e 56 85
e 56 86
e 56 87
e 56 88
e 56 89
e 56 95
e 56 97
e 56 99
e 57 58
e 57 60
e 57 62
e 57 63
e 57 64
e 57 65
e 57 66
e 57 67
e 57 68
e 57 70
e 57 73
e 57 79
e 57 83
e 57 86
e 57 88
e 57 89
e 57 90
e 57 95
e 57 97
e 58 60
e 58 61
e 58 63
e 58 64
e 58 68
e 58 72
e 58 73
e 58 74
e 58 76
e 58 79
e 58 80
e 58 82
e 58 83
e 58 85
e 58 87
e 58 89
e 58 91
e 58 92
e 58 94
e 58 97
e 58 98
e 59 61
e 59 62
e 59 64
e 59 66
e 59 69
e 59 75
e 59 76
e 59 79
e 59 81
e 59 89
e 59 92
e 59 93
e 59 95
e 59 96
e 59 98
e 60 61
e 60 65
e 60 67
e 60 74
e 60 75
e 60 78
e 60 84
e 60 85
e 60 87
e 60 91
e 60 92
e 60 94
e 60 95
e 60 97
e 60 99
e 61 63
e 61 64
e 61 65
e 61 66
e 61 76
e 61 79
e 61 80
e 61 85
e 61 86
e 61 87
e 61 91
e 61 95
e 61 99
e 62 63
e 62 67
e 62 68
e 62 75
e 62 77
e 62 78
e 62 81
e 62 84
e 62 85
e 62 96
e 62 97
e 63 65
e 63 68
e 63 69
e 63 71
e 63 72
e 63 74
e 63 75
e 63 77
e 63 82
e 63 84
e 63 90
e 63 91
e 63 93
e 63 96
e 63 97
e 63 99
e 63 100
e 64 66
e 64 67
e 64 68
e 64 71
e 64 77
e 64 78
e 64 79
e 64 81
e 64 82
e 64 83
e 64 84
e 64 85
e 64 86
e 64 87
e 64 91
e 64 92
e 64 94
e 64 96
e 64 98
e 64 99
e 65 67
e 65 71
e 65 72
e 65 75
e 65 76
e 65 77
e 65 79
e 65 82
e 65 83
e 65 85
e 65 86
e 65 88
e 65 89
e 65 92
e 65 93
e 66 69
e 66 70
e 66 71
e 66 74
e 66 76
e 66 81
e 66 83
e 66 84
e 66 86
e 66 89
e 66 91
e 66 93
e 66 98
e 66 100
e 67 69
e 67 70
e 67 71
e 67 72
e 67 75
e 67 77
e 67 79
e 67 81
e 67 84
e 67 85
e 67 87
e 67 93
e 67 94
e 67 96
e 67 99
e 67 100
e 68 71
e 68 72
e 68 73
e 68 80
e 68 81
e 68 82
e 68 83
e 68 85
e 68 87
e 68 91
e 68 92
e 68 99
e 68 100
e 69 70
e 69 72
e 69 73
e 69 74
e 69 75
e 69 77
e 69 78
e 69 79
e 69 81
e 69 85
e 69 87
e 69 89
e 69 92
e 69 94
e 69 96
e 69 97
e 70 72
e 70 74
e 70 75
e 70 79
e 70 80
e 70 84
e 70 85
e 70 91
e 70 92
e 70 96
e 70 97
e 70 99
e 70 100
e 71 72
e 71 73
e 71 77
e 71 78
e 71 79
e 71 84
e 71 90
e 71 94
e 72 75
e 72 76
e 72 77
e 72 83
e 72 86
e 72 89
e 72 93
e 72 94
e 72 96
e 72 98
e 72 99
e 73 75
e 73 76
e 73 77
e 73 80
e 73 86
e 73 88
e 73 90
e 73 91
e 73 96
e 73 97
e 73 98
e 73 99
e 73 100
e 74 77
e 74 78
e 74 79
e 74 80
e 74 82
e 74 84
e 74 85
e 74 86
e 74 87
e 74 88
e 74 90
e 74 93
e 74 96
e 74 99
e 75 76
e 75 80
e 75 84
e 75 89
e 75 91
e 76 79
e 76 80
e 76 82
e 76 85
e 76 87
e 76 88
e 76 89
e 76 95
e 76 96
e 77 78
e 77 79
e 77 84
e 77 86
e 77 89
e 77 90
e 77 91
e 77 92
e 77 93
e 77 96
e 78 79
e 78 80
e 78 81
e 78 87
e 78 88
e 78 90
e 78 92
e 78 97
e 78 100
e 79 85
e 79 90
e 79 93
e 79 94
e 79 95
e 79 96
e 79 98
e 80 81
e 80 83
e 80 86
e 80 88
e 80 92
e 80 95
e 80 96
e 80 100
e 81 84
e 81 86
e 81 92
e 81 94
e 81 95
e 81 97
e 81 99
e 82 83
e 82 84
e 82 87
e 82 92
e 82 94
e 82 97
e 82 99
e 83 84
e 83 85
e 83 87
e 83 90
e 83 91
e 83 93
e 83 95
e 84 85
e 84 91
e 84 95
e 84 100
e 85 87
e 85 89
e 85 90
e 85 97
e 86 88
e 86 90
e 86 91
e 86 92
e 86 94
e 86 95
e 86 99
e 86 100
e 87 90
e 87 94
e 87 96
e 88 90
e 88 93
e 88 95
e 88 96
e 88 98
e 88 99
e 89 91
e 89 92
e 89 98
e 90 94
e 90 98
e 90 100
e 91 92
e 91 93
e 91 98
e 91 100
e 92 93
e 92 99
e 92 100
e 93 95
e 93 98
e 95 97
e 95 100
e 96 98
e 98 100
e 99 100
n 17 7
n 18 2
n 23 3
n 34 2
n 35 1
n 55 1
n 79 6
n 80 4
n 87 1
n 99 5
